set CENT := gen1 gen2 gen3 gen4 gen5 gen6 gen7 gen8 gen9 gen10 ;
set LINE := branch1 branch2 branch3 branch4 branch5 branch6 branch7 branch8 branch9 branch10 branch11 branch12 branch13 branch14 branch15 branch16 branch17 branch18 branch19 branch20 branch21 branch22 branch23 branch24 branch25 branch26 branch27 branch28 branch29 branch30 branch31 branch32 branch33 branch34 branch35 branch36 branch37 branch38 branch39 branch40 branch41 ;
set BUS := 1 2 3 4 5 6 7 8 9 10 11 12 13 14 15 16 17 18 19 20 21 22 23 24 ;
set ETA := 1 2 3 ;
param: frombus tobus x fmax n nmax cost :=
branch1 1.0 2.0 0.0139 175.0 1.0 5.0 3.0 
branch2 1.0 3.0 0.2112 175.0 1.0 5.0 55.0 
branch3 1.0 5.0 0.0845 175.0 1.0 5.0 22.0 
branch4 2.0 4.0 0.1267 175.0 1.0 5.0 33.0 
branch5 2.0 6.0 0.192 175.0 1.0 5.0 50.0 
branch6 3.0 9.0 0.119 175.0 1.0 5.0 31.0 
branch7 3.0 24.0 0.0839 400.0 1.0 5.0 50.0 
branch8 4.0 9.0 0.1037 175.0 1.0 5.0 27.0 
branch9 5.0 10.0 0.0883 175.0 1.0 5.0 23.0 
branch10 6.0 10.0 0.0605 175.0 1.0 5.0 16.0 
branch11 7.0 8.0 0.0614 175.0 1.0 5.0 16.0 
branch12 8.0 9.0 0.1651 175.0 1.0 5.0 43.0 
branch13 8.0 10.0 0.1651 175.0 1.0 5.0 43.0 
branch14 9.0 11.0 0.0839 400.0 1.0 5.0 50.0 
branch15 9.0 12.0 0.0839 400.0 1.0 5.0 50.0 
branch16 10.0 11.0 0.0839 400.0 1.0 5.0 50.0 
branch17 10.0 12.0 0.0839 400.0 1.0 5.0 50.0 
branch18 11.0 13.0 0.0476 500.0 1.0 5.0 66.0 
branch19 11.0 14.0 0.0418 500.0 1.0 5.0 58.0 
branch20 12.0 13.0 0.0476 500.0 1.0 5.0 66.0 
branch21 12.0 23.0 0.0966 500.0 1.0 5.0 134.0 
branch22 13.0 23.0 0.0865 500.0 1.0 5.0 120.0 
branch23 14.0 16.0 0.0389 500.0 1.0 5.0 54.0 
branch24 15.0 16.0 0.0173 500.0 1.0 5.0 24.0 
branch25 15.0 21.0 0.049 500.0 2.0 5.0 68.0 
branch26 15.0 24.0 0.0519 500.0 1.0 5.0 72.0 
branch27 16.0 17.0 0.0259 500.0 1.0 5.0 36.0 
branch28 16.0 19.0 0.0231 500.0 1.0 5.0 32.0 
branch29 17.0 18.0 0.0144 500.0 1.0 5.0 20.0 
branch30 17.0 22.0 0.1053 500.0 1.0 5.0 146.0 
branch31 18.0 21.0 0.0259 500.0 2.0 5.0 36.0 
branch32 19.0 20.0 0.0396 500.0 2.0 5.0 55.0 
branch33 20.0 23.0 0.0216 500.0 2.0 5.0 30.0 
branch34 21.0 22.0 0.0678 500.0 1.0 5.0 94.0 
branch35 1.0 8.0 0.1344 500.0 0.0 5.0 35.0 
branch36 2.0 8.0 0.1267 500.0 0.0 5.0 33.0 
branch37 6.0 7.0 0.192 500.0 0.0 5.0 50.0 
branch38 13.0 14.0 0.0447 500.0 0.0 5.0 62.0 
branch39 14.0 23.0 0.062 500.0 0.0 5.0 86.0 
branch40 16.0 23.0 0.0822 500.0 0.0 5.0 114.0 
branch41 19.0 23.0 0.0606 500.0 0.0 5.0 84.0 
;
param: location :=
gen1 1.0 
gen2 2.0 
gen3 7.0 
gen4 13.0 
gen5 15.0 
gen6 16.0 
gen7 18.0 
gen8 21.0 
gen9 22.0 
gen10 23.0 
;
param demand:
1 2 3 4 5 6 7 8 9 10 11 12 13 14 15 16 17 18 19 20 21 22 23 24 :=
1 324.0 291.0 540.0 222.0 213.0 408.0 375.0 523.0 525.0 585.0 0.0 0.0 795.0 582.0 951.0 300.0 0.0 999.0 543.0 384.0 0.0 0.0 0.0 0.0 
2 340.0 306.0 567.0 233.0 224.0 428.0 394.0 549.0 551.0 614.0 0.0 0.0 835.0 611.0 999.0 315.0 0.0 1049.0 570.0 403.0 0.0 0.0 0.0 0.0 
3 357.0 321.0 595.0 245.0 235.0 450.0 413.0 577.0 579.0 645.0 0.0 0.0 876.0 642.0 1048.0 331.0 0.0 1101.0 599.0 423.0 0.0 0.0 0.0 0.0 
;
param generation:
gen1 gen2 gen3 gen4 gen5 gen6 gen7 gen8 gen9 gen10 :=
1 576.0 576.0 900.0 1773.0 645.0 465.0 1200.0 1200.0 900.0 1980.0 
2 605.0 605.0 945.0 1862.0 677.0 488.0 1260.0 1260.0 945.0 2079.0 
3 635.0 635.0 992.0 1955.0 711.0 513.0 1323.0 1323.0 992.0 2183.0 
;
param: year :=
1 1.0
2 3.31207036238
3 7.74250756621
;
param bslack := 1.0 ;
param Sbase := 100.0 ;
